(set-logic QF_S)
(declare-fun _var_0xINPUT_146509_() String)
(declare-fun __woorpje_diseq_pref0_() String)
(declare-fun __woorpje_diseq_suf_l0_() String)
(declare-fun __woorpje_diseq_suf_r0_() String)
(assert (=(str.++ _var_0xINPUT_146509_  "")(str.++ __woorpje_diseq_pref0_  "F" __woorpje_diseq_suf_l0_  "")) )
(assert (=(str.++  "JaWiaRFJE1" "")(str.++ __woorpje_diseq_pref0_  "1" __woorpje_diseq_suf_r0_  "")) )
(check-sat)
